outputs/case_214.model.txt
reported_within_6_months_after_revision = True
reported_within_10_days = False
shareholder_exceeds_25_percent = False
voting_shares_percent = 453/50
voting_shares_percent_intent = 0
shareholder_exceeds_5_percent = True
approved_before_acquisition = False
voting_shares_percent_family = 0
voting_shares_percent_pre_2008 = 11
cumulative_change_percent = 3/2
shareholder_exceeds_50_percent = False
shareholder_exceeds_10_percent = False
first_increase_approved_before_acquisition = False
shareholder_exceeds_5_percent_reported = False
shareholder_exceeds_5_to_15_percent_pre_2008_reported = True
shareholder_penalty = False
violate_article_64_1 = False
shareholder_exceeds_50_percent_approved = True
shareholder_compliance = True
shareholder_exceeds_1_percent_notify_bank = False
no_reasonable_response = False
shareholder_exceeds_5_percent_cumulative_change = True
false_or_late_report = False
trust_investment_company_violate = False
shareholder_exceeds_5_percent_penalty = False
shareholder_approval_compliance = True
shareholder_exceeds_5_percent_reported_or_pre_2008_compliant = True
shareholder_exceeds_10_percent_approved = True
unauthorized_stop_business = False
conceal_or_destroy_data = False
unauthorized_disclosure = False
violate_article_123_108 = False
director_or_supervisor_fail_report = False
violate_article_108 = False
shareholder_exceeds_25_percent_approved = True
financial_info_service_violate = False
shareholder_exceeds_5_percent_penalty_effect = False
shareholder_cumulative_change_reported = False
unauthorized_financial_info_service_operation = False
penalty = False
unauthorized_operation = False
refuse_inspection = False
foreign_bank_responsible_violate = False
shareholder_exceeds_10_percent_pre_2008_approved = False